NAME : portcgen-15-20
COMMENT : portcgen N=15, seed=20
TYPE : TSP
DIMENSION : 15
EDGE_WEIGHT_TYPE : EUC_2D
NODE_COORD_SECTION
1 53 85
2 98 73
3 76 77
4 82 56
5 70 52
6 67 3
7 94 84
8 96 59
9 80 67
10 75 43
11 75 59
12 79 71
13 114 42
14 95 61
15 99 81
